NAME: PointSet_Angle_55_4
TYPE: TSP
COMMENT: Points chosen discrete uniformly at random out of ${0, \ldots, 500}^2$.
DIMENSION: 55
EDGE_WEIGHT_TYPE: EUC_2D
NODE_COORD_SECTION
1 396 238
2 173 84
3 418 446
4 191 446
5 368 485
6 146 125
7 476 64
8 346 65
9 218 237
10 12 120
11 197 49
12 347 101
13 245 410
14 357 88
15 189 499
16 309 85
17 483 482
18 416 146
19 173 353
20 91 287
21 337 237
22 412 313
23 48 4
24 124 12
25 241 137
26 133 438
27 433 480
28 286 177
29 136 142
30 266 71
31 387 321
32 403 369
33 48 318
34 261 221
35 170 353
36 7 254
37 89 166
38 66 384
39 170 190
40 397 157
41 73 29
42 94 6
43 255 380
44 183 391
45 268 195
46 209 401
47 15 111
48 15 63
49 430 277
50 30 346
51 129 38
52 99 465
53 451 412
54 349 367
55 102 245
EOF
